c Random 3-CNF over 20 variables and 100 clauses
c Generated with `cnfgen`
c (C) 2012-2016 Massimo Lauria <lauria.massimo@gmail.com>
c https://massimolauria.github.io/cnfgen
c
c COMMAND LINE: cnfgen --output tmp-3-20-100.dimacs --output-format dimacs randkcnf 3 20 100
c
c sdimacs generated by gen-sdimacs
c
p cnf 20 100
e 11 12 13 14 15 16 17 18 19 20 0
r 0.37 1 2 3 4 5 6 7 8 9 10 0
-13 -15 20 0
4 16 -19 0
-1 3 5 0
-2 8 17 0
-7 -9 10 0
6 17 19 0
4 13 -20 0
-15 -18 -20 0
5 -7 -12 0
-14 -17 -18 0
4 12 19 0
-2 -5 14 0
10 -12 17 0
-6 10 -14 0
6 -9 17 0
1 -5 7 0
-6 -17 -18 0
13 -18 -20 0
-14 17 18 0
8 10 15 0
1 16 -19 0
5 -8 -20 0
-11 12 13 0
13 17 -19 0
4 -6 -12 0
3 10 -11 0
3 -7 -12 0
-10 -12 -16 0
2 -12 14 0
6 11 -12 0
6 8 17 0
-1 9 12 0
-7 -8 -17 0
-2 -6 -10 0
-2 12 -16 0
5 7 -8 0
1 -2 6 0
3 5 -14 0
-9 19 -20 0
-1 4 -11 0
2 15 19 0
8 11 14 0
2 5 -13 0
-4 -15 20 0
12 15 -17 0
-1 -9 13 0
-8 16 18 0
13 16 19 0
-3 15 -17 0
-3 14 -19 0
6 7 -15 0
6 11 -17 0
-5 9 14 0
7 -10 -17 0
-3 15 18 0
9 10 20 0
3 8 17 0
-2 -9 -10 0
1 -9 -18 0
7 14 -15 0
-2 12 17 0
-1 6 -20 0
-1 4 13 0
13 15 -19 0
3 5 6 0
1 -7 -12 0
-2 9 20 0
-2 3 12 0
-12 -14 -16 0
-3 -11 -17 0
2 8 -16 0
-3 13 -14 0
-10 15 19 0
-1 -7 13 0
6 12 -13 0
-6 7 -20 0
1 -4 8 0
2 -4 -11 0
-6 15 18 0
-13 15 19 0
12 -14 15 0
12 -15 -18 0
-3 -4 -18 0
3 5 -13 0
2 17 -19 0
-6 9 18 0
6 -10 -13 0
-11 16 17 0
8 -13 -17 0
-2 9 -14 0
6 9 13 0
-4 -5 -12 0
-1 2 5 0
2 -11 16 0
13 -17 20 0
3 12 -16 0
2 -7 17 0
-5 13 -18 0
11 -18 19 0
1 -10 15 0
